# Solution for model problem_
# Objective value = 2.4017192254418173e+05
x(0_0) 0
x(0_1) 0
x(0_2) 0
x(0_3) 0
x(0_4) 0
x(0_5) 0
x(0_6) 0
x(0_7) 0
x(0_8) 1
x(0_9) 0
x(0_10) 0
x(0_11) 0
x(0_12) 0
x(0_13) 0
x(0_14) 0
x(0_15) 0
x(1_16) 0
x(1_17) 0
x(1_18) 0
x(1_19) 0
x(1_20) 0
x(1_21) 0
x(1_22) 1
x(1_23) 0
x(1_24) 0
x(1_25) 0
x(1_26) 0
x(1_27) 0
x(1_28) 0
x(2_29) 0
x(2_30) 0
x(2_31) 0
x(2_32) 0
x(2_33) 0
x(2_34) 0
x(2_35) 0
x(2_36) 0
x(2_37) 0
x(2_38) 0
x(2_39) 0
x(2_40) 0
x(2_41) 0
x(2_42) 1
x(2_43) 0
x(2_44) 0
x(2_45) 0
x(2_46) 0
x(3_47) 0
x(3_48) 0
x(3_49) 0
x(3_50) 0
x(3_51) 0
x(3_52) 0
x(3_53) 0
x(3_54) 0
x(3_55) 1
x(3_56) 0
x(3_57) 0
x(3_58) 0
x(3_59) 0
x(4_60) 0
x(4_61) 0
x(4_62) 0
x(4_63) 0
x(4_64) 0
x(4_65) 1
x(4_66) 0
x(4_67) 0
x(4_68) 0
x(4_69) 0
x(4_70) 0
x(4_71) 0
x(4_72) 0
x(4_73) 0
x(4_74) 0
x(4_75) 0
x(4_76) 0
x(4_77) 0
x(4_78) 0
x(5_79) 1
x(5_80) 0
x(5_81) 0
x(5_82) 0
x(5_83) 0
x(5_84) 0
x(5_85) 0
x(5_86) 0
x(5_87) 0
x(5_88) 0
x(5_89) 0
x(5_90) 0
x(5_91) 0
x(5_92) 0
x(6_93) 0
x(6_94) 1
x(6_95) 0
x(6_96) 0
x(6_97) 0
x(6_98) 0
x(6_99) 0
x(6_100) 0
x(6_101) 0
x(6_102) 0
x(6_103) 0
x(6_104) 0
x(6_105) 0
x(6_106) 0
x(6_107) 0
x(7_108) 1
x(7_109) 0
x(7_110) 0
x(7_111) 0
x(7_112) 0
x(7_113) 0
x(7_114) 0
x(7_115) 0
x(7_116) 0
x(7_117) 0
x(8_118) 0
x(8_119) 0
x(8_120) 1
x(8_121) 0
x(8_122) 0
x(8_123) 0
x(8_124) 0
x(8_125) 0
x(8_126) 0
x(8_127) 0
x(8_128) 0
x(8_129) 0
x(8_130) 0
x(8_131) 0
x(8_132) 0
x(9_133) 0
x(9_134) 0
x(9_135) 0
x(9_136) 0
x(9_137) 0
x(9_138) 0
x(9_139) 0
x(9_140) 0
x(9_141) 0
x(9_142) 0
x(9_143) 0
x(9_144) 0
x(9_145) 0
x(9_146) 1
x(9_147) 0
x(9_148) 0
x(10_149) 0
x(10_150) 0
x(10_151) 0
x(10_152) 0
x(10_153) 0
x(10_154) 0
x(10_155) 0
x(10_156) 1
x(10_157) 0
x(10_158) 0
x(10_159) 0
x(10_160) 0
x(10_161) 0
x(10_162) 0
x(10_163) 0
x(11_164) 0
x(11_165) 0
x(11_166) 0
x(11_167) 0
x(11_168) 1
x(11_169) 0
x(11_170) 0
x(11_171) 0
x(11_172) 0
x(11_173) 0
x(11_174) 0
x(11_175) 0
x(11_176) 0
x(12_177) 0
x(12_178) 0
x(12_179) 1
x(12_180) 0
x(12_181) 0
x(12_182) 0
x(12_183) 0
x(12_184) 0
x(12_185) 0
x(12_186) 0
x(12_187) 0
x(12_188) 0
x(12_189) 0
x(12_190) 0
x(12_191) 0
x(12_192) 0
x(12_193) 0
x(12_194) 0
x(12_195) 0
x(12_196) 0
x(13_197) 0
x(13_198) 0
x(13_199) 0
x(13_200) 0
x(13_201) 0
x(13_202) 0
x(13_203) 1
x(13_204) 0
x(13_205) 0
x(13_206) 0
x(13_207) 0
x(13_208) 0
x(13_209) 0
x(13_210) 0
x(13_211) 0
x(14_212) 0
x(14_213) 0
x(14_214) 1
x(14_215) 0
x(14_216) 0
x(14_217) 0
x(14_218) 0
x(14_219) 0
x(14_220) 0
x(14_221) 0
x(14_222) 0
x(14_223) 0
x(14_224) 0
x(14_225) 0
x(14_226) 0
x(14_227) 0
x(15_228) 0
x(15_229) 0
x(15_230) 0
x(15_231) 0
x(15_232) 0
x(15_233) 0
x(15_234) 0
x(15_235) 0
x(15_236) 1
x(15_237) 0
x(15_238) 0
x(15_239) 0
x(15_240) 0
x(16_241) 0
x(16_242) 0
x(16_243) 0
x(16_244) 0
x(16_245) 0
x(16_246) 1
x(16_247) 0
x(16_248) 0
x(16_249) 0
x(16_250) 0
x(16_251) 0
x(16_252) 0
x(16_253) 0
x(16_254) 0
x(16_255) 0
x(17_256) 0
x(17_257) 1
x(17_258) 0
x(17_259) 0
x(17_260) 0
x(17_261) 0
x(17_262) 0
x(17_263) 0
x(17_264) 0
x(17_265) 0
x(17_266) 0
x(17_267) 0
x(17_268) 0
x(18_269) 0
x(18_270) 0
x(18_271) 0
x(18_272) 0
x(18_273) 0
x(18_274) 0
x(18_275) 0
x(18_276) 0
x(18_277) 0
x(18_278) 0
x(18_279) 0
x(18_280) 1
x(18_281) 0
x(18_282) 0
x(18_283) 0
x(18_284) 0
x(18_285) 0
x(18_286) 0
x(18_287) 0
x(18_288) 0
x(19_289) 0
x(19_290) 0
x(19_291) 0
x(19_292) 0
x(19_293) 0
x(19_294) 0
x(19_295) 1
x(19_296) 0
x(19_297) 0
x(19_298) 0
x(19_299) 0
x(19_300) 0
x(19_301) 0
x(19_302) 0
x(19_303) 0
x(19_304) 0
x(19_305) 0
x(19_306) 0
x(20_307) 0
x(20_308) 0
x(20_309) 0
x(20_310) 0
x(20_311) 0
x(20_312) 0
x(20_313) 0
x(20_314) 0
x(20_315) 0
x(20_316) 0
x(20_317) 0
x(20_318) 0
x(20_319) 0
x(20_320) 1
x(20_321) 0
x(20_322) 0
x(21_323) 0
x(21_324) 0
x(21_325) 0
x(21_326) 0
x(21_327) 0
x(21_328) 0
x(21_329) 0
x(21_330) 0
x(21_331) 0
x(21_332) 0
x(21_333) 0
x(21_334) 1
x(21_335) 0
x(21_336) 0
x(21_337) 0
x(21_338) 0
x(22_339) 0
x(22_340) 0
x(22_341) 0
x(22_342) 1
x(22_343) 0
x(22_344) 0
x(22_345) 0
x(22_346) 0
x(22_347) 0
x(22_348) 0
x(22_349) 0
x(23_350) 0
x(23_351) 0
x(23_352) 0
x(23_353) 0
x(23_354) 0
x(23_355) 0
x(23_356) 0
x(23_357) 0
x(23_358) 0
x(23_359) 0
x(23_360) 0
x(23_361) 0
x(23_362) 1
x(23_363) 0
x(23_364) 0
x(23_365) 0
x(23_366) 0
x(23_367) 0
x(23_368) 0
x(23_369) 0
x(24_370) 0
x(24_371) 0
x(24_372) 0
x(24_373) 0
x(24_374) 0
x(24_375) 0
x(24_376) 0
x(24_377) 0
x(24_378) 0
x(24_379) 0
x(24_380) 0
x(24_381) 0
x(24_382) 0
x(24_383) 0
x(24_384) 0
x(24_385) 0
x(24_386) 1
x(24_387) 0
x(24_388) 0
x(25_389) 0
x(25_390) 0
x(25_391) 0
x(25_392) 0
x(25_393) 0
x(25_394) 1
x(25_395) 0
x(25_396) 0
x(25_397) 0
x(25_398) 0
x(25_399) 0
x(25_400) 0
x(26_401) 1
x(26_402) 0
x(26_403) 0
x(26_404) 0
x(26_405) 0
x(26_406) 0
x(26_407) 0
x(26_408) 0
x(26_409) 0
x(26_410) 0
x(26_411) 0
x(26_412) 0
x(27_413) 0
x(27_414) 0
x(27_415) 0
x(27_416) 0
x(27_417) 0
x(27_418) 0
x(27_419) 0
x(27_420) 1
x(27_421) 0
x(27_422) 0
x(27_423) 0
x(27_424) 0
x(27_425) 0
x(27_426) 0
x(27_427) 0
x(27_428) 0
x(27_429) 0
x(27_430) 0
x(27_431) 0
x(27_432) 0
x(28_433) 0
x(28_434) 0
x(28_435) 0
x(28_436) 0
x(28_437) 0
x(28_438) 0
x(28_439) 0
x(28_440) 0
x(28_441) 0
x(28_442) 0
x(28_443) 0
x(28_444) 1
x(28_445) 0
x(28_446) 0
x(28_447) 0
x(28_448) 0
x(28_449) 0
x(29_450) 0
x(29_451) 0
x(29_452) 0
x(29_453) 0
x(29_454) 1
x(29_455) 0
x(29_456) 0
x(29_457) 0
x(29_458) 0
x(29_459) 0
x(29_460) 0
x(29_461) 0
x(29_462) 0
x(29_463) 0
x(29_464) 0
x(29_465) 0
x(30_466) 0
x(30_467) 0
x(30_468) 0
x(30_469) 0
x(30_470) 0
x(30_471) 0
x(30_472) 0
x(30_473) 0
x(30_474) 0
x(30_475) 1
x(30_476) 0
x(30_477) 0
x(30_478) 0
x(30_479) 0
x(31_480) 0
x(31_481) 0
x(31_482) 0
x(31_483) 0
x(31_484) 0
x(31_485) 1
x(31_486) 0
x(31_487) 0
x(31_488) 0
x(31_489) 0
x(31_490) 0
x(31_491) 0
x(31_492) 0
x(31_493) 0
x(31_494) 0
x(31_495) 0
x(32_496) 0
x(32_497) 0
x(32_498) 0
x(32_499) 0
x(32_500) 0
x(32_501) 1
x(32_502) 0
x(32_503) 0
x(32_504) 0
x(32_505) 0
x(32_506) 0
x(32_507) 0
x(32_508) 0
x(32_509) 0
x(32_510) 0
x(32_511) 0
x(32_512) 0
x(33_513) 0
x(33_514) 0
x(33_515) 0
x(33_516) 1
x(33_517) 0
x(33_518) 0
x(33_519) 0
x(33_520) 0
x(33_521) 0
x(33_522) 0
x(34_523) 0
x(34_524) 0
x(34_525) 0
x(34_526) 0
x(34_527) 0
x(34_528) 0
x(34_529) 0
x(34_530) 0
x(34_531) 0
x(34_532) 1
x(34_533) 0
x(34_534) 0
x(34_535) 0
x(35_536) 0
x(35_537) 0
x(35_538) 0
x(35_539) 0
x(35_540) 0
x(35_541) 0
x(35_542) 0
x(35_543) 0
x(35_544) 0
x(35_545) 1
x(35_546) 0
x(36_547) 0
x(36_548) 0
x(36_549) 0
x(36_550) 0
x(36_551) 0
x(36_552) 0
x(36_553) 0
x(36_554) 0
x(36_555) 0
x(36_556) 0
x(36_557) 0
x(36_558) 0
x(36_559) 0
x(36_560) 1
x(37_561) 0
x(37_562) 0
x(37_563) 0
x(37_564) 0
x(37_565) 0
x(37_566) 1
x(37_567) 0
x(37_568) 0
x(37_569) 0
x(37_570) 0
x(37_571) 0
x(37_572) 0
x(37_573) 0
x(37_574) 0
x(37_575) 0
x(37_576) 0
x(37_577) 0
x(38_578) 0
x(38_579) 1
x(38_580) 0
x(38_581) 0
x(38_582) 0
x(38_583) 0
x(38_584) 0
x(38_585) 0
x(38_586) 0
x(38_587) 0
x(39_588) 0
x(39_589) 0
x(39_590) 0
x(39_591) 0
x(39_592) 1
x(39_593) 0
x(39_594) 0
x(39_595) 0
x(39_596) 0
x(39_597) 0
x(39_598) 0
x(40_599) 0
x(40_600) 0
x(40_601) 0
x(40_602) 0
x(40_603) 0
x(40_604) 0
x(40_605) 0
x(40_606) 0
x(40_607) 0
x(40_608) 0
x(40_609) 0
x(40_610) 1
x(40_611) 0
x(40_612) 0
x(40_613) 0
x(40_614) 0
x(40_615) 0
x(40_616) 0
x(41_617) 1
x(41_618) 0
x(41_619) 0
x(41_620) 0
x(41_621) 0
x(41_622) 0
x(41_623) 0
x(41_624) 0
x(41_625) 0
x(41_626) 0
x(41_627) 0
x(41_628) 0
x(41_629) 0
x(42_630) 0
x(42_631) 0
x(42_632) 0
x(42_633) 0
x(42_634) 0
x(42_635) 0
x(42_636) 0
x(42_637) 1
x(42_638) 0
x(42_639) 0
x(42_640) 0
x(42_641) 0
x(42_642) 0
x(42_643) 0
x(42_644) 0
x(42_645) 0
x(42_646) 0
x(43_647) 1
x(43_648) 0
x(43_649) 0
x(43_650) 0
x(43_651) 0
x(43_652) 0
x(43_653) 0
x(43_654) 0
x(43_655) 0
x(43_656) 0
x(43_657) 0
x(43_658) 0
x(43_659) 0
x(43_660) 0
x(43_661) 0
x(43_662) 0
x(43_663) 0
x(43_664) 0
x(43_665) 0
x(44_666) 0
x(44_667) 0
x(44_668) 0
x(44_669) 0
x(44_670) 0
x(44_671) 0
x(44_672) 0
x(44_673) 0
x(44_674) 0
x(44_675) 0
x(44_676) 0
x(44_677) 0
x(44_678) 0
x(44_679) 1
x(44_680) 0
x(44_681) 0
x(45_682) 0
x(45_683) 0
x(45_684) 0
x(45_685) 1
x(45_686) 0
x(45_687) 0
x(45_688) 0
x(45_689) 0
x(45_690) 0
x(45_691) 0
x(45_692) 0
x(45_693) 0
x(45_694) 0
x(45_695) 0
x(45_696) 0
x(45_697) 0
x(45_698) 0
x(45_699) 0
x(46_700) 0
x(46_701) 0
x(46_702) 1
x(46_703) 0
x(46_704) 0
x(46_705) 0
x(46_706) 0
x(46_707) 0
x(46_708) 0
x(46_709) 0
x(47_710) 0
x(47_711) 0
x(47_712) 0
x(47_713) 0
x(47_714) 0
x(47_715) 0
x(47_716) 0
x(47_717) 1
x(47_718) 0
x(47_719) 0
x(47_720) 0
x(47_721) 0
x(48_722) 0
x(48_723) 0
x(48_724) 0
x(48_725) 0
x(48_726) 0
x(48_727) 0
x(48_728) 0
x(48_729) 0
x(48_730) 1
x(48_731) 0
x(48_732) 0
x(48_733) 0
x(49_734) 0
x(49_735) 0
x(49_736) 0
x(49_737) 0
x(49_738) 0
x(49_739) 0
x(49_740) 0
x(49_741) 1
x(49_742) 0
x(49_743) 0
x(49_744) 0
x(50_745) 1
x(50_746) 0
x(50_747) 0
x(50_748) 0
x(50_749) 0
x(50_750) 0
x(50_751) 0
x(50_752) 0
x(50_753) 0
x(50_754) 0
x(50_755) 0
x(50_756) 0
x(50_757) 0
x(50_758) 0
x(50_759) 0
x(50_760) 0
x(50_761) 0
x(50_762) 0
x(51_763) 0
x(51_764) 0
x(51_765) 0
x(51_766) 0
x(51_767) 0
x(51_768) 0
x(51_769) 0
x(51_770) 0
x(51_771) 0
x(51_772) 0
x(51_773) 0
x(51_774) 1
x(51_775) 0
x(51_776) 0
x(51_777) 0
x(51_778) 0
x(51_779) 0
x(51_780) 0
x(51_781) 0
x(51_782) 0
x(52_783) 1
x(52_784) 0
x(52_785) 0
x(52_786) 0
x(52_787) 0
x(52_788) 0
x(52_789) 0
x(52_790) 0
x(52_791) 0
x(52_792) 0
x(52_793) 0
x(52_794) 0
x(52_795) 0
x(52_796) 0
x(53_797) 0
x(53_798) 0
x(53_799) 0
x(53_800) 0
x(53_801) 0
x(53_802) 0
x(53_803) 1
x(53_804) 0
x(53_805) 0
x(53_806) 0
x(53_807) 0
x(53_808) 0
x(53_809) 0
x(54_810) 0
x(54_811) 0
x(54_812) 1
x(54_813) 0
x(54_814) 0
x(54_815) 0
x(54_816) 0
x(54_817) 0
x(54_818) 0
x(54_819) 0
x(54_820) 0
x(54_821) 0
x(54_822) 0
x(54_823) 0
x(54_824) 0
x(54_825) 0
x(54_826) 0
x(54_827) 0
x(54_828) 0
x(55_829) 0
x(55_830) 0
x(55_831) 0
x(55_832) 0
x(55_833) 0
x(55_834) 0
x(55_835) 0
x(55_836) 0
x(55_837) 0
x(55_838) 0
x(55_839) 1
x(55_840) 0
x(55_841) 0
x(55_842) 0
x(55_843) 0
x(55_844) 0
x(55_845) 0
x(55_846) 0
x(55_847) 0
x(55_848) 0
x(56_849) 0
x(56_850) 0
x(56_851) 0
x(56_852) 0
x(56_853) 0
x(56_854) 0
x(56_855) 1
x(56_856) 0
x(56_857) 0
x(56_858) 0
x(56_859) 0
x(56_860) 0
x(56_861) 0
x(56_862) 0
x(56_863) 0
x(57_864) 0
x(57_865) 0
x(57_866) 0
x(57_867) 0
x(57_868) 0
x(57_869) 0
x(57_870) 1
x(57_871) 0
x(57_872) 0
x(57_873) 0
x(57_874) 0
x(58_875) 0
x(58_876) 0
x(58_877) 0
x(58_878) 0
x(58_879) 0
x(58_880) 0
x(58_881) 0
x(58_882) 0
x(58_883) 0
x(58_884) 0
x(58_885) 0
x(58_886) 0
x(58_887) 0
x(58_888) 0
x(58_889) 0
x(58_890) 0
x(58_891) 0
x(58_892) 0
x(58_893) 1
x(58_894) 0
x(59_895) 1
x(59_896) 0
x(59_897) 0
x(59_898) 0
x(59_899) 0
x(59_900) 0
x(59_901) 0
x(59_902) 0
x(59_903) 0
x(59_904) 0
x(59_905) 0
x(59_906) 0
x(59_907) 0
x(59_908) 0
x(60_909) 0
x(60_910) 0
x(60_911) 0
x(60_912) 0
x(60_913) 1
x(60_914) 0
x(60_915) 0
x(60_916) 0
x(60_917) 0
x(60_918) 0
x(61_919) 0
x(61_920) 0
x(61_921) 0
x(61_922) 0
x(61_923) 0
x(61_924) 0
x(61_925) 0
x(61_926) 0
x(61_927) 0
x(61_928) 1
x(61_929) 0
x(61_930) 0
x(61_931) 0
x(61_932) 0
x(61_933) 0
x(61_934) 0
x(61_935) 0
x(61_936) 0
x(61_937) 0
x(62_938) 0
x(62_939) 0
x(62_940) 0
x(62_941) 0
x(62_942) 0
x(62_943) 0
x(62_944) 0
x(62_945) 0
x(62_946) 1
x(62_947) 0
x(62_948) 0
x(63_949) 0
x(63_950) 0
x(63_951) 0
x(63_952) 0
x(63_953) 0
x(63_954) 0
x(63_955) 0
x(63_956) 1
x(63_957) 0
x(63_958) 0
x(63_959) 0
x(63_960) 0
x(63_961) 0
x(64_962) 1
x(64_963) 0
x(64_964) 0
x(64_965) 0
x(64_966) 0
x(64_967) 0
x(64_968) 0
x(64_969) 0
x(64_970) 0
x(64_971) 0
x(64_972) 0
x(64_973) 0
x(64_974) 0
x(64_975) 0
x(64_976) 0
x(64_977) 0
x(65_978) 0
x(65_979) 0
x(65_980) 0
x(65_981) 0
x(65_982) 0
x(65_983) 0
x(65_984) 1
x(65_985) 0
x(65_986) 0
x(65_987) 0
x(66_988) 0
x(66_989) 0
x(66_990) 0
x(66_991) 0
x(66_992) 0
x(66_993) 0
x(66_994) 0
x(66_995) 0
x(66_996) 1
x(66_997) 0
x(66_998) 0
x(66_999) 0
x(66_1000) 0
x(66_1001) 0
x(66_1002) 0
x(66_1003) 0
x(66_1004) 0
x(67_1005) 0
x(67_1006) 1
x(67_1007) 0
x(67_1008) 0
x(67_1009) 0
x(67_1010) 0
x(67_1011) 0
x(67_1012) 0
x(67_1013) 0
x(67_1014) 0
x(68_1015) 0
x(68_1016) 1
x(68_1017) 0
x(68_1018) 0
x(68_1019) 0
x(68_1020) 0
x(68_1021) 0
x(68_1022) 0
x(68_1023) 0
x(68_1024) 0
x(68_1025) 0
x(68_1026) 0
x(68_1027) 0
x(68_1028) 0
x(68_1029) 0
x(68_1030) 0
x(69_1031) 0
x(69_1032) 0
x(69_1033) 0
x(69_1034) 0
x(69_1035) 1
x(69_1036) 0
x(69_1037) 0
x(69_1038) 0
x(69_1039) 0
x(69_1040) 0
x(69_1041) 0
x(69_1042) 0
x(69_1043) 0
x(70_1044) 0
x(70_1045) 0
x(70_1046) 0
x(70_1047) 1
x(70_1048) 0
x(70_1049) 0
x(70_1050) 0
x(70_1051) 0
x(70_1052) 0
x(70_1053) 0
x(70_1054) 0
x(71_1055) 0
x(71_1056) 0
x(71_1057) 1
x(71_1058) 0
x(71_1059) 0
x(71_1060) 0
x(71_1061) 0
x(71_1062) 0
x(71_1063) 0
x(71_1064) 0
x(71_1065) 0
x(71_1066) 0
x(71_1067) 0
x(71_1068) 0
x(71_1069) 0
x(71_1070) 0
x(71_1071) 0
x(72_1072) 0
x(72_1073) 0
x(72_1074) 0
x(72_1075) 1
x(72_1076) 0
x(72_1077) 0
x(72_1078) 0
x(72_1079) 0
x(72_1080) 0
x(72_1081) 0
x(72_1082) 0
x(72_1083) 0
x(73_1084) 0
x(73_1085) 0
x(73_1086) 0
x(73_1087) 0
x(73_1088) 0
x(73_1089) 0
x(73_1090) 0
x(73_1091) 0
x(73_1092) 0
x(73_1093) 0
x(73_1094) 1
x(73_1095) 0
x(73_1096) 0
x(73_1097) 0
x(73_1098) 0
x(73_1099) 0
x(74_1100) 0
x(74_1101) 1
x(74_1102) 0
x(74_1103) 0
x(74_1104) 0
x(74_1105) 0
x(74_1106) 0
x(74_1107) 0
x(74_1108) 0
x(74_1109) 0
x(74_1110) 0
x(74_1111) 0
x(74_1112) 0
x(74_1113) 0
x(74_1114) 0
x(75_1115) 0
x(75_1116) 0
x(75_1117) 0
x(75_1118) 0
x(75_1119) 0
x(75_1120) 0
x(75_1121) 0
x(75_1122) 0
x(75_1123) 0
x(75_1124) 0
x(75_1125) 0
x(75_1126) 0
x(75_1127) 0
x(75_1128) 0
x(75_1129) 1
x(76_1130) 0
x(76_1131) 1
x(76_1132) 0
x(76_1133) 0
x(76_1134) 0
x(76_1135) 0
x(76_1136) 0
x(76_1137) 0
x(76_1138) 0
x(76_1139) 0
x(76_1140) 0
x(76_1141) 0
x(76_1142) 0
x(76_1143) 0
x(76_1144) 0
x(76_1145) 0
x(76_1146) 0
x(76_1147) 0
x(76_1148) 0
x(77_1149) 0
x(77_1150) 0
x(77_1151) 0
x(77_1152) 0
x(77_1153) 0
x(77_1154) 0
x(77_1155) 1
x(77_1156) 0
x(77_1157) 0
x(77_1158) 0
x(77_1159) 0
x(77_1160) 0
x(77_1161) 0
x(78_1162) 0
x(78_1163) 0
x(78_1164) 0
x(78_1165) 0
x(78_1166) 0
x(78_1167) 0
x(78_1168) 0
x(78_1169) 0
x(78_1170) 0
x(78_1171) 0
x(78_1172) 0
x(78_1173) 0
x(78_1174) 0
x(78_1175) 0
x(78_1176) 1
x(78_1177) 0
x(78_1178) 0
x(79_1179) 0
x(79_1180) 0
x(79_1181) 0
x(79_1182) 1
x(79_1183) 0
x(79_1184) 0
x(79_1185) 0
x(79_1186) 0
x(79_1187) 0
x(79_1188) 0
x(79_1189) 0
x(79_1190) 0
x(79_1191) 0
x(79_1192) 0
x(79_1193) 0
x(79_1194) 0
x(79_1195) 0
x(79_1196) 0
x(80_1197) 0
x(80_1198) 0
x(80_1199) 0
x(80_1200) 0
x(80_1201) 0
x(80_1202) 0
x(80_1203) 0
x(80_1204) 1
x(80_1205) 0
x(80_1206) 0
x(80_1207) 0
x(80_1208) 0
x(80_1209) 0
x(80_1210) 0
x(80_1211) 0
x(80_1212) 0
x(81_1213) 0
x(81_1214) 0
x(81_1215) 0
x(81_1216) 0
x(81_1217) 0
x(81_1218) 0
x(81_1219) 0
x(81_1220) 0
x(81_1221) 0
x(81_1222) 0
x(81_1223) 1
x(81_1224) 0
x(81_1225) 0
x(81_1226) 0
x(81_1227) 0
x(81_1228) 0
x(81_1229) 0
x(81_1230) 0
x(81_1231) 0
x(81_1232) 0
x(82_1233) 0
x(82_1234) 0
x(82_1235) 0
x(82_1236) 0
x(82_1237) 0
x(82_1238) 0
x(82_1239) 1
x(82_1240) 0
x(82_1241) 0
x(82_1242) 0
x(83_1243) 0
x(83_1244) 0
x(83_1245) 0
x(83_1246) 0
x(83_1247) 0
x(83_1248) 0
x(83_1249) 0
x(83_1250) 0
x(83_1251) 0
x(83_1252) 0
x(83_1253) 0
x(83_1254) 0
x(83_1255) 0
x(83_1256) 0
x(83_1257) 1
x(83_1258) 0
x(83_1259) 0
x(83_1260) 0
x(83_1261) 0
x(83_1262) 0
x(84_1263) 0
x(84_1264) 0
x(84_1265) 1
x(84_1266) 0
x(84_1267) 0
x(84_1268) 0
x(84_1269) 0
x(84_1270) 0
x(84_1271) 0
x(84_1272) 0
x(84_1273) 0
x(84_1274) 0
x(84_1275) 0
x(84_1276) 0
x(84_1277) 0
x(84_1278) 0
x(84_1279) 0
x(85_1280) 0
x(85_1281) 0
x(85_1282) 0
x(85_1283) 0
x(85_1284) 1
x(85_1285) 0
x(85_1286) 0
x(85_1287) 0
x(85_1288) 0
x(85_1289) 0
x(85_1290) 0
x(85_1291) 0
x(85_1292) 0
x(85_1293) 0
x(85_1294) 0
x(85_1295) 0
x(85_1296) 0
x(85_1297) 0
x(85_1298) 0
x(86_1299) 0
x(86_1300) 0
x(86_1301) 0
x(86_1302) 1
x(86_1303) 0
x(86_1304) 0
x(86_1305) 0
x(86_1306) 0
x(86_1307) 0
x(86_1308) 0
x(86_1309) 0
x(86_1310) 0
x(86_1311) 0
x(86_1312) 0
x(86_1313) 0
x(86_1314) 0
x(86_1315) 0
x(86_1316) 0
x(87_1317) 0
x(87_1318) 0
x(87_1319) 0
x(87_1320) 0
x(87_1321) 0
x(87_1322) 0
x(87_1323) 0
x(87_1324) 0
x(87_1325) 0
x(87_1326) 0
x(87_1327) 0
x(87_1328) 0
x(87_1329) 0
x(87_1330) 0
x(87_1331) 1
x(87_1332) 0
x(88_1333) 1
x(88_1334) 0
x(88_1335) 0
x(88_1336) 0
x(88_1337) 0
x(88_1338) 0
x(88_1339) 0
x(88_1340) 0
x(88_1341) 0
x(88_1342) 0
x(88_1343) 0
x(88_1344) 0
x(88_1345) 0
x(88_1346) 0
x(88_1347) 0
x(88_1348) 0
x(88_1349) 0
x(88_1350) 0
x(88_1351) 0
x(88_1352) 0
x(89_1353) 0
x(89_1354) 0
x(89_1355) 0
x(89_1356) 0
x(89_1357) 0
x(89_1358) 0
x(89_1359) 1
x(89_1360) 0
x(89_1361) 0
x(89_1362) 0
x(90_1363) 0
x(90_1364) 0
x(90_1365) 0
x(90_1366) 0
x(90_1367) 0
x(90_1368) 0
x(90_1369) 0
x(90_1370) 0
x(90_1371) 0
x(90_1372) 1
x(91_1373) 0
x(91_1374) 0
x(91_1375) 0
x(91_1376) 0
x(91_1377) 0
x(91_1378) 0
x(91_1379) 0
x(91_1380) 0
x(91_1381) 1
x(91_1382) 0
x(92_1383) 0
x(92_1384) 0
x(92_1385) 0
x(92_1386) 0
x(92_1387) 0
x(92_1388) 0
x(92_1389) 1
x(92_1390) 0
x(92_1391) 0
x(92_1392) 0
x(92_1393) 0
x(92_1394) 0
x(93_1395) 0
x(93_1396) 0
x(93_1397) 0
x(93_1398) 0
x(93_1399) 0
x(93_1400) 0
x(93_1401) 0
x(93_1402) 0
x(93_1403) 0
x(93_1404) 0
x(93_1405) 0
x(93_1406) 0
x(93_1407) 0
x(93_1408) 1
x(93_1409) 0
x(93_1410) 0
x(93_1411) 0
x(93_1412) 0
x(93_1413) 0
x(94_1414) 0
x(94_1415) 0
x(94_1416) 1
x(94_1417) 0
x(94_1418) 0
x(94_1419) 0
x(94_1420) 0
x(94_1421) 0
x(94_1422) 0
x(94_1423) 0
x(94_1424) 0
x(94_1425) 0
x(94_1426) 0
x(94_1427) 0
x(95_1428) 0
x(95_1429) 0
x(95_1430) 0
x(95_1431) 0
x(95_1432) 0
x(95_1433) 0
x(95_1434) 0
x(95_1435) 1
x(95_1436) 0
x(95_1437) 0
x(96_1438) 0
x(96_1439) 0
x(96_1440) 0
x(96_1441) 0
x(96_1442) 0
x(96_1443) 0
x(96_1444) 0
x(96_1445) 0
x(96_1446) 1
x(96_1447) 0
x(96_1448) 0
x(96_1449) 0
x(96_1450) 0
x(96_1451) 0
x(96_1452) 0
x(97_1453) 0
x(97_1454) 0
x(97_1455) 0
x(97_1456) 0
x(97_1457) 1
x(97_1458) 0
x(97_1459) 0
x(97_1460) 0
x(97_1461) 0
x(97_1462) 0
x(97_1463) 0
x(97_1464) 0
x(97_1465) 0
x(97_1466) 0
x_1_0 4.4063376028602943e+02
s_1_0 0
z_1_0 9.9559366239713964e-01
x_1_1 4.3932038398261648e+02
s_1_1 0
z_1_1 9.9560679616017378e-01
x_1_2 0
s_1_2 2.1647341357311234e+00
z_1_2 1
x_1_3 4.9999371935661438e+04
s_1_3 5.0000628064338554e+04
z_1_3 5.0000628064338559e-01
x_1_4 4.9999221623456513e+04
s_1_4 5.0000778376543487e+04
z_1_4 5.0000778376543487e-01
x_1_5 4.3689977020816877e+02
s_1_5 0
z_1_5 9.9563100229791834e-01
x_1_6 0
s_1_6 1.9604279441409744e+00
z_1_6 1
x_1_7 4.3813727609347552e+02
s_1_7 0
z_1_7 9.9561862723906525e-01
x_1_8 4.3656459061379428e+02
s_1_8 0
z_1_8 0.995634354093862
x_1_9 0
s_1_9 2.0326526858407306e+00
z_1_9 1
x_1_10 4.4009376289369538e+02
s_1_10 0
z_1_10 9.9559906237106310e-01
x_1_11 0
s_1_11 1.4864999217388686e+00
z_1_11 1
x_1_12 4.4207237341627479e+02
s_1_12 0
z_1_12 9.9557927626583720e-01
x_1_13 4.3636846702126786e+02
s_1_13 0
z_1_13 9.9563631532978736e-01
x_1_14 4.3960059022346104e+02
s_1_14 0
z_1_14 9.9560399409776545e-01
x_1_15 4.4034791088459315e+02
s_1_15 0
z_1_15 0.995596520891154
x_1_16 4.3871047682524659e+02
s_1_16 0
z_1_16 9.9561289523174756e-01
x_1_17 0
s_1_17 2.0065306209726259e+00
z_1_17 1
x_1_18 0
s_1_18 1.94763005652203
z_1_18 1
x_1_19 0
s_1_19 1.0442981721716933e+00
z_1_19 1
x_1_20 442.065701211337
s_1_20 0
z_1_20 9.9557934298788664e-01
x_1_21 0
s_1_21 1.7253990558092482e+00
z_1_21 1
x_1_22 4.3888129952269082e+02
s_1_22 0
z_1_22 0.995611187004773
x_1_23 4.4286728903069161e+02
s_1_23 0
z_1_23 9.9557132710969309e-01
x_1_24 4.4078177111834520e+02
s_1_24 0
z_1_24 9.9559218228881652e-01
x_1_25 4.3832827776693739e+02
s_1_25 0
z_1_25 9.9561671722233069e-01
x_1_26 0
s_1_26 1.5679598008573521e+00
z_1_26 1
x_1_27 0
s_1_27 6.9791614245852429e-01
z_1_27 1
x_1_28 4.4036172157338297e+02
s_1_28 0
z_1_28 9.9559638278426610e-01
x_1_29 4.3746434282601695e+02
s_1_29 0
z_1_29 9.9562535657173978e-01
x_1_30 0
s_1_30 1.8643126887036487e+00
z_1_30 1
x_1_31 0
s_1_31 1.4312520787643734e+00
z_1_31 1
x_1_32 4.9999277777072050e+04
s_1_32 5.0000722222927950e+04
z_1_32 5.0000722222927951e-01
x_1_33 0
s_1_33 1.5183366926503368e+00
z_1_33 1
x_1_34 4.4023113208638097e+02
s_1_34 0
z_1_34 9.9559768867913623e-01
x_1_35 0
s_1_35 1.7982205401931424e+00
z_1_35 1
x_1_36 4.3809012819733471e+02
s_1_36 0
z_1_36 9.9561909871802667e-01
x_1_37 0
s_1_37 1.3836027658253442e+00
z_1_37 1
x_1_38 4.3958558344679477e+02
s_1_38 0
z_1_38 9.9560414416553211e-01
x_1_39 0
s_1_39 1.6323778328951448e+00
z_1_39 1
x_1_40 4.9999504908621595e+04
s_1_40 5.0000495091378405e+04
z_1_40 0.500004950913784
x_1_41 4.3770317582727876e+02
s_1_41 0
z_1_41 9.9562296824172725e-01
x_1_42 4.4054940834105946e+02
s_1_42 0
z_1_42 9.9559450591658938e-01
x_1_43 0
s_1_43 1.5510130189068150e+00
z_1_43 1
x_1_44 4.3779755139630288e+02
s_1_44 0
z_1_44 0.995622024486037
x_1_45 4.4237210423406214e+02
s_1_45 0
z_1_45 9.9557627895765943e-01
x_1_46 0
s_1_46 1.8796605439056293e+00
z_1_46 1
x_1_47 0
s_1_47 1.0493013989180326e+00
z_1_47 1
x_1_48 4.4189765423448989e+02
s_1_48 0
z_1_48 9.9558102345765509e-01
x_1_49 4.4198520999436732e+02
s_1_49 0
z_1_49 9.9558014790005633e-01
x_1_50 0
s_1_50 1.7276584138162434e+00
z_1_50 1
x_1_51 0
s_1_51 1.6129617662518285e+00
z_1_51 1
x_1_52 4.3853564065974206e+02
s_1_52 0
z_1_52 9.9561464359340257e-01
x_1_53 0
s_1_53 1.2028383565047989e+00
z_1_53 1
x_1_54 4.9998992899989884e+04
s_1_54 5.0001007100010116e+04
z_1_54 5.0001007100010120e-01
x_1_55 0
s_1_55 1.9939030259847641e+00
z_1_55 1
x_1_56 0
s_1_56 9.4795454700943083e-01
z_1_56 1
x_1_57 0
s_1_57 1.5291180447566148e+00
z_1_57 1
x_1_58 0
s_1_58 1.7716588220791891e+00
z_1_58 1
x_1_59 4.9998977248912212e+04
s_1_59 5.0001022751087788e+04
z_1_59 5.0001022751087787e-01
x_1_60 0
s_1_60 9.4819371657649754e-01
z_1_60 1
x_1_61 4.9999077318101481e+04
s_1_61 5.0000922681898519e+04
z_1_61 5.0000922681898519e-01
x_1_62 4.3760032248137577e+02
s_1_62 0
z_1_62 9.9562399677518620e-01
x_1_63 4.3743157068360597e+02
s_1_63 0
z_1_63 0.995625684293164
x_1_64 0
s_1_64 2.0972077965852804e+00
z_1_64 1
x_1_65 4.3645838577952236e+02
s_1_65 0
z_1_65 9.9563541614220474e-01
x_1_66 4.3757962598465383e+02
s_1_66 0
z_1_66 9.9562420374015348e-01
x_1_67 0
s_1_67 1.4910148099515936e+00
z_1_67 1
x_1_68 4.3702241382328793e+02
s_1_68 0
z_1_68 9.9562977586176715e-01
x_1_69 4.4010752007411793e+02
s_1_69 0
z_1_69 9.9559892479925882e-01
x_1_70 4.4014882752345875e+02
s_1_70 0
z_1_70 9.9559851172476543e-01
x_1_71 4.4256784534128383e+02
s_1_71 0
z_1_71 9.9557432154658720e-01
x_1_72 4.3808087440895906e+02
s_1_72 0
z_1_72 9.9561919125591036e-01
x_1_73 4.4148787079288741e+02
s_1_73 0
z_1_73 9.9558512129207111e-01
x_1_74 4.4295105134419282e+02
s_1_74 0
z_1_74 9.9557048948655813e-01
x_1_75 4.9999252878920612e+04
s_1_75 5.0000747121079388e+04
z_1_75 5.0000747121079392e-01
x_1_76 4.3708174441989104e+02
s_1_76 0
z_1_76 9.9562918255580113e-01
x_1_77 0
s_1_77 1.5744016458120313e+00
z_1_77 1
x_1_78 4.4044089625077322e+02
s_1_78 0
z_1_78 9.9559559103749229e-01
x_1_79 0
s_1_79 1.9317007253412157e+00
z_1_79 1
x_1_80 4.4216369181079790e+02
s_1_80 0
z_1_80 0.995578363081892
x_1_81 0
s_1_81 2.3981548167066649e+00
z_1_81 1
x_1_82 0
s_1_82 1.4173405230540084e+00
z_1_82 1
x_1_83 4.3829301943816245e+02
s_1_83 0
z_1_83 9.9561706980561837e-01
x_1_84 0
s_1_84 1.78987487879931
z_1_84 1
x_1_85 4.3909932053997181e+02
s_1_85 0
z_1_85 9.9560900679460029e-01
x_1_86 4.4015748804902250e+02
s_1_86 0
z_1_86 9.9559842511950980e-01
x_1_87 4.9999218882685847e+04
s_1_87 5.0000781117314153e+04
z_1_87 5.0000781117314153e-01
x_1_88 4.9999301665337873e+04
s_1_88 5.0000698334662127e+04
z_1_88 5.0000698334662130e-01
x_1_89 0
s_1_89 1.6586122369189980e+00
z_1_89 1
x_1_90 0
s_1_90 1.6520233361516148e+00
z_1_90 1
x_1_91 0
s_1_91 1.0680706475395709e+00
z_1_91 1
x_1_92 4.4065068673726637e+02
s_1_92 0
z_1_92 9.9559349313262735e-01
x_1_93 0
s_1_93 1.5476477819902357e+00
z_1_93 1
x_1_94 4.3904651670133171e+02
s_1_94 0
z_1_94 9.9560953483298664e-01
x_1_95 0
s_1_95 1.5740855781186838e+00
z_1_95 1
x_1_96 0
s_1_96 2.0365452486730646e+00
z_1_96 1
x_1_97 4.4184444177556725e+02
s_1_97 0
z_1_97 9.9558155558224426e-01
x_1_98 4.4164075305149890e+02
s_1_98 0
z_1_98 0.995583592469485
x_1_99 0
s_1_99 9.7332815916161053e-01
z_1_99 1
x_1_100 4.4144497174405842e+02
s_1_100 0
z_1_100 9.9558555028255935e-01
x_1_101 0
s_1_101 9.5921775878377957e-01
z_1_101 1
x_1_102 4.4237050632154569e+02
s_1_102 0
z_1_102 9.9557629493678457e-01
x_1_103 4.9999217429696844e+04
s_1_103 5.0000782570303156e+04
z_1_103 5.0000782570303159e-01
x_1_104 4.3671418224601075e+02
s_1_104 0
z_1_104 9.9563285817753988e-01
x_1_105 0
s_1_105 1.3245192365138792e+00
z_1_105 1
x_1_106 4.3626472036843188e+02
s_1_106 0
z_1_106 9.9563735279631571e-01
x_1_107 4.3947387514170259e+02
s_1_107 0
z_1_107 0.995605261248583
x_1_108 4.4207844904647209e+02
s_1_108 0
z_1_108 9.9557921550953532e-01
x_1_109 4.9999103763995721e+04
s_1_109 5.0000896236004279e+04
z_1_109 5.0000896236004277e-01
x_1_110 4.4023605665657669e+02
s_1_110 0
z_1_110 9.9559763943343427e-01
x_1_111 4.4199256755248643e+02
s_1_111 0
z_1_111 9.9558007432447515e-01
x_1_112 0
s_1_112 2.0280948525178246e+00
z_1_112 1
x_1_113 439.065269083716
s_1_113 0
z_1_113 9.9560934730916284e-01
x_1_114 4.9999301859899839e+04
s_1_114 5.0000698140100169e+04
z_1_114 5.0000698140100164e-01
x_1_115 0
s_1_115 2.1698466075467877e+00
z_1_115 1
x_1_116 4.3999753820477054e+02
s_1_116 0
z_1_116 9.9560002461795227e-01
x_1_117 4.3767968117515557e+02
s_1_117 0
z_1_117 9.9562320318824848e-01
x_1_118 4.4167369855660945e+02
s_1_118 0
z_1_118 9.9558326301443389e-01
x_1_119 4.3919937206876057e+02
s_1_119 0
z_1_119 9.9560800627931245e-01
x_1_120 4.3813229993545974e+02
s_1_120 0
z_1_120 9.9561867700064544e-01
x_1_121 0
s_1_121 1.9542011881712824e+00
z_1_121 1
x_1_122 0
s_1_122 7.6830321899615228e-01
z_1_122 1
x_1_123 0
s_1_123 1.9426044999054284e+00
z_1_123 1
x_1_124 440.541450089775
s_1_124 0
z_1_124 9.9559458549910229e-01
x_1_125 0
s_1_125 2.1426756533328444e+00
z_1_125 1
x_1_126 4.3944424258777872e+02
s_1_126 0
z_1_126 9.9560555757412217e-01
x_1_127 0
s_1_127 1.0537362212489825e+00
z_1_127 1
x_1_128 4.3633782066521235e+02
s_1_128 0
z_1_128 9.9563662179334789e-01
x_1_129 0
s_1_129 8.9229985599376960e-01
z_1_129 1
x_1_130 0
s_1_130 6.5490460692672059e-01
z_1_130 1
x_1_131 0
s_1_131 1.3870359552965965e+00
z_1_131 1
x_1_132 0
s_1_132 1.6230474165058695e+00
z_1_132 1
x_1_133 0
s_1_133 1.0089703757948882e+00
z_1_133 1
x_1_134 0
s_1_134 1.5578921485575847e+00
z_1_134 1
x_1_135 0
s_1_135 1.3232615530723706e+00
z_1_135 1
x_1_136 4.9999503212133088e+04
s_1_136 5.0000496787866905e+04
z_1_136 5.0000496787866910e-01
x_1_137 4.4262114685866982e+02
s_1_137 0
z_1_137 9.9557378853141332e-01
x_1_138 4.4104645563242957e+02
s_1_138 0
z_1_138 9.9558953544367568e-01
x_1_139 0
s_1_139 2.0348192248784471e+00
z_1_139 1
x_1_140 0
s_1_140 1.5484355161315762e+00
z_1_140 1
x_1_141 4.3674609900450741e+02
s_1_141 0
z_1_141 9.9563253900995485e-01
x_1_142 0
s_1_142 1.4303286092472263e+00
z_1_142 1
x_1_143 4.4078572041762527e+02
s_1_143 0
z_1_143 9.9559214279582375e-01
x_1_144 0
s_1_144 1.6116693299227336e+00
z_1_144 1
x_1_145 4.3694609489501454e+02
s_1_145 0
z_1_145 9.9563053905104981e-01
x_1_146 4.4084620002844895e+02
s_1_146 0
z_1_146 9.9559153799971556e-01
x_1_147 4.3881593987981614e+02
s_1_147 0
z_1_147 9.9561184060120189e-01
x_1_148 4.3768420112202875e+02
s_1_148 0
z_1_148 9.9562315798877976e-01
x_1_149 0
s_1_149 1.7183843059756327e+00
z_1_149 1
x_1_150 0
s_1_150 1.3767694593989290e+00
z_1_150 1
x_1_151 0
s_1_151 1.9701558429514989e+00
z_1_151 1
x_1_152 4.4266766509017907e+02
s_1_152 0
z_1_152 9.9557332334909820e-01
x_1_153 4.3777101379353553e+02
s_1_153 0
z_1_153 9.9562228986206469e-01
x_1_154 0
s_1_154 1.9472683956846595e+00
z_1_154 1
x_1_155 4.4006068223447073e+02
s_1_155 0
z_1_155 9.9559939317765522e-01
x_1_156 4.3723046184628038e+02
s_1_156 0
z_1_156 9.9562769538153717e-01
x_1_157 0
s_1_157 1.7185157470521517e+00
z_1_157 1
x_1_158 4.3753085292363539e+02
s_1_158 0
z_1_158 9.9562469147076371e-01
x_1_159 0
s_1_159 1.2995190522051416e+00
z_1_159 1
x_2_0 2.3909634054418173e+05
